4 3
7 4
10 4
12 5
13 6
15 8
16 9
16 10
15 12
13 14
11 15
9 18
8 20
7 23
5 27
4 31
1 38
-1 42
-4 48
-6 50
-9 53
-18 71
-19 76
-20 79
-26 91
-27 101
-28 106
-28 118
-28 128
-29 133
-25 163
-24 171
-19 184
-17 189
-15 193
-13 197
-12 202
-11 207
-11 218
-11 222
-11 225
-17 231
-20 234
-23 236
-25 238
-26 240
-28 242
-31 244
-35 246
-40 248
-45 249
-51 251
-56 253
-62 255
-67 258
-76 265
-83 272
-92 287
-97 301
-105 318
-110 326
-114 333
-117 339
-119 344
-121 350
-132 366
-141 369
-145 369
-152 368
-155 368
-157 368
-168 380
-168 378
-167 376
-165 374
-162 371
-25 84
-24 82
-22 81
-19 69
-20 66
-20 63
-20 60
-19 57
-17 55
